750
750
524
524
524
523
521
521
521
519
519
518
518
518
518
517
517
516
515
515
514
513
512
512
512
512
511
511
511
511
510
510
510
510
510
509
509
509
508
508
507
507
507
506
505
505
505
504
503
502
501
501
501
500
500
500
499
499
498
498
498
497
497
497
497
497
496
496
496
494
494
494
493
493
492
491
491
490
490
489
489
488
487
487
484
483
483
483
482
482
482
481
481
479
478
478
477
477
476
476
475
475
474
474
472
471
471
470
469
468
468
467
467
467
467
466
464
464
463
463
462
462
462
462
462
461
460
460
458
458
458
457
456
456
455
455
454
454
454
454
454
453
453
452
452
452
452
450
450
450
449
448
448
448
448
447
447
447
446
445
445
445
443
443
442
442
442
441
440
440
439
438
438
438
437
437
436
436
435
435
435
434
434
433
433
433
433
432
432
432
432
431
430
430
430
429
429
428
428
427
427
427
426
426
425
425
425
424
424
424
424
423
423
422
422
422
421
419
418
418
418
417
416
415
414
414
414
413
413
412
412
412
412
411
410
410
410
410
410
410
409
408
408
407
406
406
406
405
405
405
405
404
404
403
401
400
400
398
398
397
396
393
393
393
393
393
392
392
392
392
391
391
390
390
390
389
388
387
386
386
386
386
385
385
383
383
382
382
381
381
381
380
380
380
379
377
376
375
375
373
373
373
372
372
371
370
369
368
367
367
367
367
365
365
365
364
363
363
363
363
362
362
362
361
360
360
360
360
360
359
358
358
357
357
356
356
355
355
355
353
353
353
352
351
351
351
350
349
348
348
348
347
346
346
346
345
345
344
344
344
344
344
344
343
342
341
341
340
340
339
339
338
337
337
336
336
334
334
334
334
333
333
332
331
331
330
329
329
329
328
328
328
328
327
327
327
326
326
326
325
325
325
324
324
324
324
323
321
321
320
320
319
319
319
318
318
318
318
317
317
316
315
315
315
314
314
314
313
313
312
312
312
312
312
311
310
310
310
309
309
309
309
308
308
307
307
306
306
306
306
305
304
303
303
303
303
303
303
303
302
302
302
301
300
300
297
297
297
296
296
295
295
295
294
293
293
292
292
292
291
291
289
289
289
288
288
287
287
287
285
285
284
284
282
282
282
282
282
281
280
279
279
279
279
278
278
278
278
274
273
273
273
273
272
272
272
272
271
271
270
270
269
269
267
267
266
265
264
264
263
262
262
262
261
259
259
259
259
258
257
257
256
255
254
254
253
253
252
252
252
251
251
251
251
251
250
250
249
248
248
248
247
246
245
244
244
244
243
243
243
243
243
242
242
241
240
240
239
239
239
238
237
237
237
236
236
236
235
235
235
233
233
233
233
232
231
230
229
229
228
228
227
227
227
226
223
222
222
221
221
221
220
220
220
219
218
218
218
218
217
216
216
215
215
215
214
214
214
214
213
213
213
213
212
211
211
211
209
208
207
206
205
205
204
204
204
203
202
201
200
200
199
199
199
198
198
198
197
197
196
195
195
194
194
194
194
194
193
193
193
192
192
192
192
192
192
191
190
190
189
189
189
188
188
187
185
185
184
184
183
183
183
183
182
182
181
181
181
181
180
180
179
179
179
178
178
177
177
175
175
175
175
174
171
171
170
169
168
168
168
168
167
166
165
163
162
161
161
160
160
159
159
159
158
157
156
155
155
155
154
154
154
153
153
152
152
151
151
151
151
151
151
